NAME          COPTPROB
OBJSENSE
  MIN
ROWS
 N  __OBJ___
 L  C8      
 L  C13     
 L  C44     
 L  C64     
 L  C95     
 L  C134    
 L  C177    
 L  C192    
COLUMNS
    MARKER    'MARKER'                 'INTORG'
    x805      __OBJ___  7
    x805      C64       -1
    x1195     __OBJ___  18
    x1195     C8        -1
    x1195     C95       -1
    x2290     __OBJ___  99
    x2290     C44       -1
    x2290     C192      -1
    x2643     __OBJ___  56
    x2643     C95       -1
    x2643     C192      -1
    x2828     __OBJ___  41
    x2828     C192      -1
    x3353     __OBJ___  34
    x3353     C13       -1
    x3353     C134      -1
    x3636     __OBJ___  34
    x3636     C8        -1
    x3636     C13       -1
    x3651     __OBJ___  16
    x3651     C8        -1
    x3651     C64       -1
    x4288     __OBJ___  9
    x4288     C64       -1
    x4288     C177      -1
    x4475     __OBJ___  25
    x4475     C134      -1
    x4475     C177      -1
    x5183     __OBJ___  61
    x5183     C8        -1
    x5183     C44       -1
    MARKER    'MARKER'                 'INTEND'
RHS
    RHS       __OBJ___  -2184
    RHS       C8        -1
    RHS       C13       -1
    RHS       C44       -1
    RHS       C64       -1
    RHS       C95       -1
    RHS       C134      -1
    RHS       C177      -1
    RHS       C192      -1
BOUNDS
 UP BOUND     x805      1
 UP BOUND     x1195     1
 UP BOUND     x2290     1
 UP BOUND     x2643     1
 UP BOUND     x2828     1
 UP BOUND     x3353     1
 UP BOUND     x3636     1
 UP BOUND     x3651     1
 UP BOUND     x4288     1
 UP BOUND     x4475     1
 UP BOUND     x5183     1
ENDATA
